Route #1: 26 58 10 53 35 7
Route #2: 38 11 59 14
Route #3: 31 55 25 50 18 24 44
Route #4: 12 39 9 32 40
Route #5: 17 3 16 49 56 23 63 33
Route #6: 6 2 62 28 30
Route #7: 4 48 5 29 45 34
Route #8: 46 8 19 54 13 27 52
Route #9: 57 15 37 20 60 36 47 21
Route #10: 61 22 64 42 41 43 1 51
Cost 841